SCIP Status        : solving was interrupted [time limit reached]
Total Time         :    3600.01
  solving          :    3600.00
  presolving       :       0.16 (included in solving)
  reading          :       0.01
  copying          :       0.07 (12 #copies) (minimal 0.00, maximal 0.01, average 0.01)
Original Problem   :
  Problem name     : benchmark/block2_55_11_10_11.design
  Variables        : 1466 (55 binary, 0 integer, 0 implicit integer, 1411 continuous)
  Constraints      : 2028 initial, 2028 maximal
  Objective        : minimize, 1 non-zeros (abs.min = 1, abs.max = 1)
Presolved Problem  :
  Problem name     : t_benchmark/block2_55_11_10_11.design
  Variables        : 2128 (55 binary, 0 integer, 0 implicit integer, 2073 continuous)
  Constraints      : 2028 initial, 2031 maximal
  Objective        : minimize, 1 non-zeros (abs.min = 1, abs.max = 1)
  Nonzeros         : 6922 constraint, 0 clique table
Presolvers         :   ExecTime  SetupTime  Calls  FixedVars   AggrVars   ChgTypes  ChgBounds   AddHoles    DelCons    AddCons   ChgSides   ChgCoefs
  boundshift       :       0.00       0.00      0          0          0          0          0          0          0          0          0          0
  convertinttobin  :       0.00       0.00      0          0          0          0          0          0          0          0          0          0
  domcol           :       0.00       0.00      1          0          0          0          0          0          0          0          0          0
  dualagg          :       0.00       0.00      0          0          0          0          0          0          0          0          0          0
  dualcomp         :       0.00       0.00      1          0          0          0          0          0          0          0          0          0
  dualinfer        :       0.00       0.00      0          0          0          0          0          0          0          0          0          0
  dualsparsify     :       0.00       0.00      1          0          0          0          0          0          0          0          0          0
  gateextraction   :       0.00       0.00      0          0          0          0          0          0          0          0          0          0
  implics          :       0.00       0.00      1          0          0          0          0          0          0          0          0          0
  inttobinary      :       0.00       0.00      0          0          0          0          0          0          0          0          0          0
  qpkktref         :       0.00       0.00      0          0          0          0          0          0          0          0          0          0
  redvub           :       0.00       0.00      0          0          0          0          0          0          0          0          0          0
  sparsify         :       0.00       0.00      1          0          0          0          0          0          0          0          0          0
  stuffing         :       0.00       0.00      0          0          0          0          0          0          0          0          0          0
  trivial          :       0.00       0.00      2         45          0          0          0          0          0          0          0          0
  tworowbnd        :       0.00       0.00      0          0          0          0          0          0          0          0          0          0
  dualfix          :       0.00       0.00      2         45          0          0          0          0          0          0          0          0
  genvbounds       :       0.00       0.00      0          0          0          0          0          0          0          0          0          0
  probing          :       0.01       0.00      1          0          0          0          0          0          0          0          0          0
  pseudoobj        :       0.00       0.00      0          0          0          0          0          0          0          0          0          0
  symmetry         :       0.01       0.00      1          0          0          0          0          0          0          0          0          0
  vbounds          :       0.00       0.00      0          0          0          0          0          0          0          0          0          0
  linear           :       0.00       0.00      3          0          0          0          0          0          0          0          0          0
  nonlinear        :       0.13       0.02      4          0          0          0        100          0          0          0          0          0
  benders          :       0.00       0.00      0          0          0          0          0          0          0          0          0          0
  components       :       0.00       0.00      1          0          0          0          0          0          0          0          0          0
  root node        :          -          -      -          0          -          -       2740          -          -          -          -          -
Constraints        :     Number  MaxNumber  #Separate #Propagate    #EnfoLP    #EnfoRelax  #EnfoPS    #Check   #ResProp    Cutoffs    DomReds       Cuts    Applied      Conss   Children
  benderslp        :          0          0          0          0       9239          0          0       8030          0          0          0          0          0          0          0
  integral         :          0          0          0          0       9239          0          0       8030          0          0       5896          0          0          0      17726
  linear           :       1377+      1380         84     339359          0          0          0       8024          0         50      15018         42         41          0          0
  nonlinear        :        651        651      92917     339309          0          0          0       6038          0        142     597971    3793102    3791582          0          0
  benders          :          0          0          0          0          0          0          0          6          0          0          0          0          0          0          0
  countsols        :          0          0          0          0          0          0          0          6          0          0          0          0          0          0          0
  components       :          0          0          0          0          0          0          0          0          0          0          0          0          0          0          0
Constraint Timings :  TotalTime  SetupTime   Separate  Propagate     EnfoLP     EnfoPS     EnfoRelax   Check    ResProp    SB-Prop
  benderslp        :       0.01       0.00       0.00       0.00       0.00       0.00       0.00       0.01       0.00       0.00
  integral         :      35.87       0.00       0.00       0.00      35.85       0.00       0.00       0.02       0.00       0.00
  linear           :       7.82       0.00       0.04       7.46       0.00       0.00       0.00       0.29       0.00       0.03
  nonlinear        :     134.70       0.02      89.92      41.53       0.00       0.00       0.00       2.80       0.00       0.43
  benders          :       0.00       0.00       0.00       0.00       0.00       0.00       0.00       0.00       0.00       0.00
  countsols        :       0.00       0.00       0.00       0.00       0.00       0.00       0.00       0.00       0.00       0.00
  components       :       0.04       0.00       0.00       0.04       0.00       0.00       0.00       0.00       0.00       0.00
Propagators        : #Propagate   #ResProp    Cutoffs    DomReds
  dualfix          :          2          0          0          0
  genvbounds       :          0          0          0          0
  nlobbt           :          0          0          0          0
  obbt             :          0          0          0          0
  probing          :          0          0          0          0
  pseudoobj        :      29090          0          0         13
  redcost          :     111398          0          0          0
  rootredcost      :          5          0          0       2076
  symmetry         :          0          0          0          0
  vbounds          :      74169          0          0          0
Propagator Timings :  TotalTime  SetupTime   Presolve  Propagate    ResProp    SB-Prop
  dualfix          :       0.00       0.00       0.00       0.00       0.00       0.00
  genvbounds       :       0.15       0.00       0.00       0.15       0.00       0.00
  nlobbt           :       0.00       0.00       0.00       0.00       0.00       0.00
  obbt             :       0.00       0.00       0.00       0.00       0.00       0.00
  probing          :       0.01       0.00       0.01       0.00       0.00       0.00
  pseudoobj        :       0.28       0.00       0.00       0.27       0.00       0.01
  redcost          :       1.65       0.00       0.00       1.65       0.00       0.00
  rootredcost      :       0.13       0.00       0.00       0.12       0.00       0.01
  symmetry         :       0.13       0.00       0.01       0.12       0.00       0.00
  vbounds          :       0.18       0.00       0.00       0.18       0.00       0.00
Conflict Analysis  :       Time      Calls    Success    DomReds  Conflicts   Literals    Reconvs ReconvLits   Dualrays   Nonzeros   LP Iters   (pool size: [--,--])
  propagation      :       0.00         40          0          -          0        0.0          0        0.0          -          -          -
  infeasible LP    :       0.00          0          0          -          0        0.0          0        0.0         34      257.7          0
  bound exceed. LP :       0.41        165         34          -          0        0.0          0        0.0          0        0.0       2304
  strong branching :       0.00          0          0          -          0        0.0          0        0.0          -          -          0
  pseudo solution  :       0.00          0          0          -          0        0.0          0        0.0          -          -          -
  applied globally :       0.00          -          -          0          0        0.0          -          -         34          -          -
  applied locally  :          -          -          -          0          0        0.0          -          -          0          -          -
Separators         :   ExecTime  SetupTime      Calls  RootCalls    Cutoffs    DomReds  FoundCuts ViaPoolAdd  DirectAdd    Applied ViaPoolApp  DirectApp      Conss
  cut pool         :       0.01          -       1837         84          -          -         29         29          -          -          -          -          -    (maximal pool size:          5)
  aggregation      :       8.05       0.00       5007         84          0          0          0          0          0          0          0          0          0
  > cmir           :          -          -          -          -          -          -          -          0          0          0          0          0          -
  > flowcover      :          -          -          -          -          -          -          -          0          0          0          0          0          -
  > knapsackcover  :          -          -          -          -          -          -          -          0          0          0          0          0          -
  cgmip            :       0.00       0.00          0          0          0          0          0          0          0          0          0          0          0
  clique           :       0.00       0.00          1          1          0          0          0          0          0          0          0          0          0
  closecuts        :       0.00       0.00          0          0          0          0          0          0          0          0          0          0          0
  convexproj       :       0.00       0.00          0          0          0          0          0          0          0          0          0          0          0
  disjunctive      :       0.00       0.00          0          0          0          0          0          0          0          0          0          0          0
  eccuts           :       0.00       0.00          0          0          0          0          0          0          0          0          0          0          0
  gauge            :       0.00       0.00          0          0          0          0          0          0          0          0          0          0          0
  gomory           :       2.09       0.00       2255         10          0          0         29         29          0         29         29          0          0
  > gomorymi       :          -          -          -          -          -          -          -         29          0         29         29          0          -
  > strongcg       :          -          -          -          -          -          -          -          0          0          0          0          0          -
  impliedbounds    :       0.34       0.00       5007         84          0          0          0          0          0          0          0          0          0
  interminor       :       0.00       0.00          0          0          0          0          0          0          0          0          0          0          0
  intobj           :       0.00       0.00          0          0          0          0          0          0          0          0          0          0          0
  mcf              :       0.00       0.00          2          2          0          0          0          0          0          0          0          0          0
  minor            :       0.00       0.00          0          0          0          0          0          0          0          0          0          0          0
  mixing           :       0.14       0.00       5007         84          0          0          0          0          0          0          0          0          0
  oddcycle         :       0.00       0.00          0          0          0          0          0          0          0          0          0          0          0
  rapidlearning    :       0.00       0.00          0          0          0          0          0          0          0          0          0          0          0
  rlt              :       0.02       0.00         10         10          0          0          0          0          0          0          0          0          0
  zerohalf         :       1.08       0.00       2265         20          0          0          0          0          0          0          0          0          0
Cutselectors       :   ExecTime  SetupTime      Calls  RootCalls   Selected     Forced   Filtered  RootSelec   RootForc   RootFilt 
  hybrid           :       2.49       0.00      92917         84    3791652          0       1521       5984          0          2
Pricers            :   ExecTime  SetupTime      Calls       Vars
  problem variables:       0.00          -          0          0
Branching Rules    :   ExecTime  SetupTime   BranchLP  BranchExt   BranchPS    Cutoffs    DomReds       Cuts      Conss   Children
  allfullstrong    :       0.00       0.00          0          0          0          0          0          0          0          0
  cloud            :       0.00       0.00          0          0          0          0          0          0          0          0
  distribution     :       0.00       0.00          0          0          0          0          0          0          0          0
  fullstrong       :       0.00       0.00          0          0          0          0          0          0          0          0
  inference        :       0.00       0.00          0          0          0          0          0          0          0          0
  leastinf         :       0.00       0.00          0          0          0          0          0          0          0          0
  lookahead        :       0.00       0.00          0          0          0          0          0          0          0          0
  mostinf          :       0.00       0.00          0          0          0          0          0          0          0          0
  multaggr         :       0.00       0.00          0          0          0          0          0          0          0          0
  nodereopt        :       0.00       0.00          0          0          0          0          0          0          0          0
  pscost           :       0.00       0.00          0          0          0          0          0          0          0          0
  random           :       0.00       0.00          0          0          0          0          0          0          0          0
  relpscost        :      35.83       0.00       9239          0          0          0       5896          0          0      17726
  vanillafullstrong:       0.00       0.00          0          0          0          0          0          0          0          0
Primal Heuristics  :   ExecTime  SetupTime      Calls      Found       Best
  LP solutions     :       0.00          -          -          0          0
  relax solutions  :       0.00          -          -          0          0
  pseudo solutions :       0.00          -          -          0          0
  strong branching :       0.02          -          -          0          0
  actconsdiving    :       0.00       0.00          0          0          0
  adaptivediving   :       4.33       0.00         47          0          0
  alns             :       5.70       0.00          8          3          3
  bound            :       0.00       0.00          0          0          0
  clique           :       0.00       0.00          0          0          0
  coefdiving       :       0.00       0.00          0          0          0
  completesol      :       0.00       0.00          0          0          0
  conflictdiving   :      57.81       0.00        373          0          0
  crossover        :       0.00       0.00          0          0          0
  dins             :       0.00       0.00          0          0          0
  distributiondivin:     215.05       0.00        384          0          0
  dps              :       0.00       0.00          0          0          0
  dualval          :       0.00       0.00          0          0          0
  farkasdiving     :       0.00       0.00          0          0          0
  feaspump         :      40.16       0.00         68          0          0
  fixandinfer      :       0.00       0.00          0          0          0
  fracdiving       :      53.69       0.00        384          0          0
  gins             :       0.01       0.00          0          0          0
  guideddiving     :      54.44       0.00        385          0          0
  indicator        :       0.10       0.00          0          0          0
  indicatordiving  :       0.00       0.00          0          0          0
  intdiving        :       0.00       0.00          0          0          0
  intshifting      :       1.37       0.00         31          0          0
  linesearchdiving :      42.83       0.00        385          0          0
  localbranching   :       0.00       0.00          0          0          0
  locks            :       0.02       0.00          1          0          0
  lpface           :       0.00       0.00          0          0          0
  mpec             :      12.92       0.00          1          0          0
  multistart       :       0.00       0.00          0          0          0
  mutation         :       0.00       0.00          0          0          0
  nlpdiving        :       4.69       0.00          1          0          0
  objpscostdiving  :      24.54       0.00         18          0          0
  octane           :       0.00       0.00          0          0          0
  ofins            :       0.01       0.00          0          0          0
  oneopt           :       0.00       0.00          5          0          0
  padm             :       0.00       0.00          0          0          0
  proximity        :       0.00       0.00          0          0          0
  pscostdiving     :      66.74       0.00        384          0          0
  randrounding     :       1.23       0.00       2487          0          0
  rens             :       0.00       0.00          0          0          0
  reoptsols        :       0.00       0.00          0          0          0
  repair           :       0.00       0.00          0          0          0
  rins             :       4.41       0.00          4          0          0
  rootsoldiving    :       6.04       0.00         20          0          0
  rounding         :       0.81       0.00       4643          0          0
  shiftandpropagate:       0.02       0.00          1          0          0
  shifting         :       1.45       0.00       1158          0          0
  simplerounding   :       0.05       0.00          0          0          0
  subnlp           :       3.69       0.00         13          2          2
  trivial          :       0.02       0.00          2          0          0
  trivialnegation  :       0.00       0.00          0          0          0
  trustregion      :       0.00       0.00          0          0          0
  trysol           :       0.06       0.00          0          0          0
  twoopt           :       0.00       0.00          0          0          0
  undercover       :       0.26       0.00          1          0          0
  vbounds          :       0.00       0.00          0          0          0
  veclendiving     :      21.20       0.00        384          0          0
  zeroobj          :       0.00       0.00          0          0          0
  zirounding       :       0.03       0.00       1000          0          0
  other solutions  :          -          -          -          0          -
Diving (single)    :      Calls      Nodes   LP Iters Backtracks  Conflicts   MinDepth   MaxDepth   AvgDepth  RoundSols  NLeafSols  MinSolDpt  MaxSolDpt  AvgSolDpt
  actconsdiving    :          0          -          -          -          -          -          -          -          -          -          -          -          -
  coefdiving       :          0          -          -          -          -          -          -          -          -          -          -          -          -
  conflictdiving   :        373      13192     498000         63         20         45         55       50.4          0          -          -          -          -
  distributiondivin:        384       8009     359962         17          4         15         55       36.9          0          -          -          -          -
  farkasdiving     :          0          -          -          -          -          -          -          -          -          -          -          -          -
  fracdiving       :        384      14408     443522          6          1         42         55       53.6          0          -          -          -          -
  guideddiving     :        385      13766     454610          5          1         43         55       52.0          0          -          -          -          -
  indicatordiving  :          0          -          -          -          -          -          -          -          -          -          -          -          -
  linesearchdiving :        385      10206     356251         27          6         32         53       42.8          0          -          -          -          -
  pscostdiving     :        384      14744     552090          7          1         50         55       54.2          0          -          -          -          -
  veclendiving     :        384       2303     208334          9          1         14         32       22.3          0          -          -          -          -
Diving (adaptive)  :      Calls      Nodes   LP Iters Backtracks  Conflicts   MinDepth   MaxDepth   AvgDepth  RoundSols  NLeafSols  MinSolDpt  MaxSolDpt  AvgSolDpt
  actconsdiving    :          8         56       5216          2          0         15         28       20.5          0          -          -          -          -
  coefdiving       :         15         82       7621          0          0         15         32       22.3          0          -          -          -          -
  conflictdiving   :          0          -          -          -          -          -          -          -          -          -          -          -          -
  distributiondivin:          0          -          -          -          -          -          -          -          -          -          -          -          -
  farkasdiving     :          0          -          -          -          -          -          -          -          -          -          -          -          -
  fracdiving       :          4        162       5160          0          0         50         55       53.5          0          -          -          -          -
  guideddiving     :          6        231       8152          0          0         48         55       53.2          0          -          -          -          -
  indicatordiving  :          0          -          -          -          -          -          -          -          -          -          -          -          -
  linesearchdiving :          4        102       3261          0          0         36         47       41.5          0          -          -          -          -
  pscostdiving     :          3        110       4745          0          0         53         55       54.0          0          -          -          -          -
  veclendiving     :          7         45       3736          0          0         21         28       22.6          0          -          -          -          -
Neighborhoods      :      Calls  SetupTime  SolveTime SolveNodes       Sols       Best       Exp3  EpsGreedy        UCB TgtFixRate  Opt  Inf Node Stal  Sol  Usr Othr Actv
  rens             :          1       0.01       0.00          0          0          0    0.00000   -1.00000    0.55929      0.700    0    1    0    0    0    0    0    1
  rins             :          1       0.02       0.86         29          0          0    0.00000   -1.00000    0.52766      0.700    0    1    0    0    0    0    0    1
  mutation         :          1       0.02       1.47         17          1          1    0.00000   -1.00000    0.96284      0.700    1    0    0    0    0    0    0    1
  localbranching   :          1       0.00       0.63         35          1          1    0.00000   -1.00000    0.94745      0.700    1    0    0    0    0    0    0    1
  crossover        :          1       0.01       0.36         11          1          1    0.00000   -1.00000    0.96764      0.700    1    0    0    0    0    0    0    1
  proximity        :          1       0.02       1.65         11          0          0    0.00000   -1.00000    0.54729      0.700    0    1    0    0    0    0    0    1
  zeroobjective    :          1       0.01       0.00          0          0          0    0.00000   -1.00000    0.05929      0.900    0    0    0    0    0    0    1    1
  dins             :          1       0.01       0.57         37          0          0    0.00000   -1.00000    0.51893      0.700    0    1    0    0    0    0    0    1
  trustregion      :          0       0.00       0.00          0          0          0    0.00000   -1.00000    1.00000      0.900    0    0    0    0    0    0    0    0
Expressions        :   #IntEval  IntEvalTi   #RevProp  RevPropTi    DomReds    Cutoffs  #Estimate  EstimTime  Branching  #Simplify SimplifyTi Simplified
  pow              :    7949538       1.80    2540100       0.77    4149144          0       1001       0.00          0       1420       0.00          0
  prod             :    6410153       1.61      61491       0.24        112          0          0       0.00          0       1102       0.01        550
  sum              :    7411158       1.85    4181369       1.48     469351         18        101       0.00          0       1402       0.00        101
  var              :   18098477       3.76          0       0.00          0          0          0       0.00          0       3821       0.01          0
  varidx           :          0       0.00          0       0.00          0          0          0       0.00          0          0       0.00          0
Nonlinear Conshdlr :   WeakSepa  TightenLP DespTghtLP DespBranch DespCutoff    ForceLP  CanonTime
  enforce          :          0          0          0          0          0          0
  presolve         :                                                                         0.08
Nlhdlrs            :    Detects  DetectAll DetectTime   #IntEval  IntEvalTi   #RevProp  RevPropTi    DomReds    Cutoffs   #Enforce   EnfoTime       Cuts  Branching
  soc              :        550        550       0.01          0       0.00          0       0.00          0          0   13464369      24.53    3699284          0
  convex           :          1          1       0.00          0       0.00          0       0.00          0          0      92918       0.41      92917          0
  concave          :          0          0       0.00          0       0.00          0       0.00          0          0          0       0.00          0          0
  quotient         :          0          0       0.00          0       0.00          0       0.00          0          0          0       0.00          0          0
  quadratic        :          0          0       0.00          0       0.00          0       0.00          0          0          0       0.00          0          0
  default          :       3228      16140       0.00   21768103      13.03    6787058      12.58    4618607         18       1102       0.00        901          0
  bilinear         :          0          0       0.00          0       0.00          0       0.00          0          0          0       0.00          0          0
  perspective      :          0          0       0.00          0       0.00          0       0.00          0          0          0       0.00          0          0
LP                 :       Time      Calls Iterations  Iter/call   Iter/sec  Time-0-It Calls-0-It    ItLimit
  primal LP        :     400.34      12024          0       0.00       0.00     400.27      12024
  dual LP          :    2322.44     102172   17292946     169.90    7446.02       0.19        387
  lex dual LP      :       0.00          0          0       0.00          -
  barrier LP       :       0.00          0          0       0.00          -       0.00          0
  resolve instable :       0.00          0          0       0.00          -
  diving/probing LP:     342.01      17768    3270847     184.09    9563.60
  strong branching :      29.89        801     226074     282.24    7563.53          -          -        177
    (at root node) :          -         31       1502      48.45          -
  conflict analysis:       0.16        243       2304       9.48   14400.00
NLP relaxation     :
  solve time       :       4.67 (13 calls)
  convexity        :  nonconvex (77 linear rows, 101 convex ineq., 550 nonconvex ineq., 0 nonlinear eq. or two-sided ineq.)
NLP Solvers        :  #Problems  ProblemTi    #Solves  SolveTime      #Iter  Time/Iter      #Okay #TimeLimit #IterLimit #LObjLimit #Interrupt  #NumError #EvalError  #OutOfMem #LicenseEr #OtherTerm   #GlobOpt    #LocOpt  #Feasible #LocInfeas #GlobInfea #Unbounded   #Unknown
  ipopt            :         15       5.54         27      20.49       1384       0.01         22          0          5          0          0          0          0          0          0          0          0         14          0          8          0          0          5
B&B Tree           :
  number of runs   :          1
  nodes            :       8864 (8863 internal, 1 leaves)
  feasible leaves  :          0
  infeas. leaves   :          0
  objective leaves :          0
  nodes (total)    :       8864 (8863 internal, 1 leaves)
  nodes left       :       8864
  max depth        :         26
  max depth (total):         26
  backtracks       :       2846 (32.1%)
  early backtracks :          0 (0.0%)
  nodes exc. ref.  :          0 (0.0%)
  delayed cutoffs  :          0
  repropagations   :          6 (0 domain reductions, 0 cutoffs)
  avg switch length:       8.45
  switching time   :     291.55
Estim. Tree Size   :         -1
Estimation Tree    : 17727 nodes (8863 visited, 8863 internal, 0 leaves, 8864 open), weight: 0.0000 completed 0.0409
Estimations        :      estim      value      trend resolution     smooth
  wbe              :         -1          -          -          -          -
  tree-profile     :         -1          -          -          -          -
  gap              :         -1    0.76872                     1           
  tree-weight      :         -1    0.00000                     1           
  leaf-frequency   :         -1   -0.00006                     1           
  ssg              :         -1    0.93541                     1           
  open-nodes       :         -1 8864.00000                     1           
Root Node          :
  First LP value   : -2.06077890679618e+00
  First LP Iters   :       2242 (32028.57 Iter/sec)
  First LP Time    :       0.07
  Final Dual Bound : -1.73110092961217e+00
  Final Root Iters :      17625
  Root LP Estimate : -1.50620256654076e+00
Solution           :
  Solutions found  :          5 (5 improvements)
  First Solution   : -1.11612588080736e+00   (in run 1, after 1 nodes, 0.92 seconds, depth 0, found by <feaspump>)
  Gap First Sol.   :      84.64 %
  Gap Last Sol.    :      30.88 %
  Primal Bound     : -1.27099055333445e+00   (in run 1, after 5463 nodes, 2017.75 seconds, depth 20, found by <alns>)
  Dual Bound       : -1.65339394184823e+00
  Gap              :      30.09 %
Integrals          :      Total       Avg%
  primal-dual      :   93624.52      26.01
  primal-ref       :          -          - (not evaluated)
  dual-ref         :          -          - (not evaluated)
